WARNING: for repeatability, setting FPU to use double precision
============================[ Problem Statistics ]=============================
|                                                                             |
|  Number of variables:           100                                         |
|  Number of clauses:             449                                         |
|  Parse time:                   0.00 s                                       |
|  Eliminated clauses:           0.00 Mb                                      |
|  Simplification time:          0.00 s                                       |
|                                                                             |
============================[ Search Statistics ]==============================
| Conflicts |          ORIGINAL         |          LEARNT          | Progress |
|           |    Vars  Clauses Literals |    Limit  Clauses Lit/Cl |          |
===============================================================================
|       100 |      99      444     1332 |      162      100      8 |  0.010 % |
|       250 |      99      444     1332 |      179      167      7 |  0.010 % |
|       475 |      99      444     1332 |      196      113      6 |  0.010 % |
===============================================================================
restarts              : 5
conflicts             : 550            (131140 /sec)
decisions             : 661            (0.00 % random) (157606 /sec)
propagations          : 13021          (3104673 /sec)
conflict literals     : 3831           (19.87 % deleted)
Memory used           : 13.00 MB
CPU time              : 0.004194 s

SATISFIABLE
